                  *****************
                  * O   R   C   A *
                  *****************

Program Version 5.0.4 - RELEASE

------------------
INPUT FILE
------------------
|  1> ! B3LYP def2-TZVP OPT
|  2> * xyz 0 1
|  3> C  0.000000  0.000000  0.000000
|  4> C  0.000000  0.000000  1.400000
|  5> *
|  6>

Total Charge    Charge    0
Multiplicity    Mult    1

SCF CONVERGED AFTER  11 CYCLES

<S**2>                :     0.000000

THE OPTIMIZATION HAS CONVERGED

------------------------------------
TD-DFT/TDA EXCITED STATES (SINGLETS)
------------------------------------

STATE  1:  E=   0.115000 au      3.129 eV    25235.0 cm**-1
STATE  2:  E=   0.142000 au      3.864 eV    31162.4 cm**-1

------------------------------------
TD-DFT/TDA EXCITED STATES (TRIPLETS)
------------------------------------

STATE  1:  E=   0.112000 au      3.048 eV    24579.0 cm**-1

ORCA TERMINATED NORMALLY
