                  *****************
                  * O   R   C   A *
                  *****************

Program Version 5.0.4 - RELEASE

------------------
INPUT FILE
------------------
|  1> ! B3LYP def2-TZVP OPT
|  2> * xyz 0 1
|  3> C  0.000000  0.000000  0.000000
|  4> C  0.000000  0.000000  1.530000
|  5> *
|  6>

Total Charge    Charge    0
Multiplicity    Mult    1

SCF CONVERGED AFTER  14 CYCLES

<S**2>                :     0.000000

------------------------------
VIBRATIONAL FREQUENCIES
------------------------------
   0:       0.00 cm**-1
   1:       0.00 cm**-1
   2:       0.00 cm**-1
   3:       0.00 cm**-1
   4:       0.00 cm**-1
   5:       0.00 cm**-1
   6:     312.44 cm**-1
   7:     815.20 cm**-1
   8:     944.71 cm**-1
   9:    1103.58 cm**-1
  10:    1240.06 cm**-1
  11:    1408.33 cm**-1
  12:    1633.90 cm**-1
  13:    3120.77 cm**-1
  14:    3210.15 cm**-1
  15:    3222.60 cm**-1
  16:    3231.04 cm**-1
  17:    3244.88 cm**-1

THE OPTIMIZATION HAS CONVERGED

ORCA TERMINATED NORMALLY
